dimacs.cnf
p cnf 60 175 
-1 2 4 0 
-1 -2 -4 0 
-2 1 10 0 
-10 3 5 0 
-2 -1 -3 0 
-2 -1 -5 0 
-2 -3 -5 0 
-3 2 6 0 
-3 -2 -6 0 
-4 7 11 0 
-11 5 1 0 
-4 -7 -5 0 
-4 -7 -1 0 
-4 -5 -1 0 
-5 -2 -4 0 
-5 -2 -6 0 
-5 -2 -8 0 
-5 2 12 0 
-12 4 13 0 
-13 6 8 0 
-5 -4 -6 0 
-5 -4 -8 0 
-5 -6 -8 0 
-6 9 14 0 
-14 5 3 0 
-6 -9 -5 0 
-6 -9 -3 0 
-6 -5 -3 0 
-7 8 4 0 
-7 -8 -4 0 
-8 7 15 0 
-15 9 5 0 
-8 -7 -9 0 
-8 -7 -5 0 
-8 -9 -5 0 
-9 8 6 0 
-9 -8 -6 0 
1 2 16 0 
-16 3 17 0 
-17 4 18 0 
-18 5 19 0 
-19 6 20 0 
-20 7 8 0 
1 2 21 0 
-21 3 22 0 
-22 4 23 0 
-23 5 24 0 
-24 6 25 0 
-25 7 9 0 
1 2 26 0 
-26 3 27 0 
-27 4 28 0 
-28 5 29 0 
-29 6 30 0 
-30 8 9 0 
1 2 31 0 
-31 3 32 0 
-32 4 33 0 
-33 5 34 0 
-34 7 35 0 
-35 8 9 0 
1 2 36 0 
-36 3 37 0 
-37 4 38 0 
-38 6 39 0 
-39 7 40 0 
-40 8 9 0 
1 2 41 0 
-41 3 42 0 
-42 5 43 0 
-43 6 44 0 
-44 7 45 0 
-45 8 9 0 
1 2 46 0 
-46 4 47 0 
-47 5 48 0 
-48 6 49 0 
-49 7 50 0 
-50 8 9 0 
1 3 51 0 
-51 4 52 0 
-52 5 53 0 
-53 6 54 0 
-54 7 55 0 
-55 8 9 0 
2 3 56 0 
-56 4 57 0 
-57 5 58 0 
-58 6 59 0 
-59 7 60 0 
-60 8 9 0 
-1 -2 -3 0 
-1 -2 -4 0 
-1 -2 -5 0 
-1 -2 -6 0 
-1 -2 -7 0 
-1 -2 -8 0 
-1 -2 -9 0 
-1 -3 -4 0 
-1 -3 -5 0 
-1 -3 -6 0 
-1 -3 -7 0 
-1 -3 -8 0 
-1 -3 -9 0 
-1 -4 -5 0 
-1 -4 -6 0 
-1 -4 -7 0 
-1 -4 -8 0 
-1 -4 -9 0 
-1 -5 -6 0 
-1 -5 -7 0 
-1 -5 -8 0 
-1 -5 -9 0 
-1 -6 -7 0 
-1 -6 -8 0 
-1 -6 -9 0 
-1 -7 -8 0 
-1 -7 -9 0 
-1 -8 -9 0 
-2 -3 -4 0 
-2 -3 -5 0 
-2 -3 -6 0 
-2 -3 -7 0 
-2 -3 -8 0 
-2 -3 -9 0 
-2 -4 -5 0 
-2 -4 -6 0 
-2 -4 -7 0 
-2 -4 -8 0 
-2 -4 -9 0 
-2 -5 -6 0 
-2 -5 -7 0 
-2 -5 -8 0 
-2 -5 -9 0 
-2 -6 -7 0 
-2 -6 -8 0 
-2 -6 -9 0 
-2 -7 -8 0 
-2 -7 -9 0 
-2 -8 -9 0 
-3 -4 -5 0 
-3 -4 -6 0 
-3 -4 -7 0 
-3 -4 -8 0 
-3 -4 -9 0 
-3 -5 -6 0 
-3 -5 -7 0 
-3 -5 -8 0 
-3 -5 -9 0 
-3 -6 -7 0 
-3 -6 -8 0 
-3 -6 -9 0 
-3 -7 -8 0 
-3 -7 -9 0 
-3 -8 -9 0 
-4 -5 -6 0 
-4 -5 -7 0 
-4 -5 -8 0 
-4 -5 -9 0 
-4 -6 -7 0 
-4 -6 -8 0 
-4 -6 -9 0 
-4 -7 -8 0 
-4 -7 -9 0 
-4 -8 -9 0 
-5 -6 -7 0 
-5 -6 -8 0 
-5 -6 -9 0 
-5 -7 -8 0 
-5 -7 -9 0 
-5 -8 -9 0 
-6 -7 -8 0 
-6 -7 -9 0 
-6 -8 -9 0 
-7 -8 -9 0 
