dimacs.txt
p cnf 4 8 
-11 12 21 0 
-11 -12 -21 0 
-12 11 22 0 
-12 -11 -22 0 
-21 22 11 0 
-21 -22 -11 0 
-22 21 12 0 
-22 -21 -12 0 
